
--- Job z_Logic_B_B_HR2.gms Start 06/30/15 12:11:56 24.4.5 r52258 WEX-VS8 x86 32bit/MS Windows
GAMS 24.4.5   Copyright (C) 1987-2015 GAMS Development. All rights reserved
Licensee: Ignacio E. Grossmann                           G150105/0001AO-GEN
          Carnegie Mellon University, Dept. of Chemical Engineering  DC9476
          License for teaching and research at degree granting institutions
--- Starting continued compilation
--- Workfile was generated under GAMS version WIN244-244
--- z_Logic_B_B_HR2.gms(237) 9 Mb
--- Starting execution: elapsed 0:00:00.055
--- z_Logic_B_B_HR2.gms(201) 10 Mb
--- Generating RMIP model chull
--- z_Logic_B_B_HR2.gms(203) 11 Mb
---   681 rows  313 columns  1,552 non-zeroes
---   60 discrete-columns
--- Executing CPLEX: elapsed 0:00:00.088

IBM ILOG CPLEX   24.4.5 r52258 Released May 26, 2015 VS8 x86 32bit/MS Windows 
--- GAMS/Cplex licensed for continuous and discrete problems.
Cplex 12.6.1.0

Reading data...
Starting Cplex...
Space for names approximately 0.02 Mb
Use option 'names no' to turn use of names off
Tried aggregator 1 time.
LP Presolve eliminated 124 rows and 0 columns.
Aggregator did 62 substitutions.
Reduced LP has 495 rows, 251 columns, and 1480 nonzeros.
Presolve time = 0.00 sec. (0.38 ticks)
Initializing dual steep norms . . .

Iteration log . . .
Iteration:     1   Scaled dual infeas =             1.000000
Perturbation started.
Iteration:    51   Scaled dual infeas =             1.000000
Iteration:    67   Dual objective     =             5.000000
Iteration:   141   Dual objective     =             5.000010
Removing perturbation.
LP status(1): optimal
Cplex Time: 0.00sec (det. 2.10 ticks)

Optimal solution found.
Objective :           5.000000

--- Restarting execution
--- z_Logic_B_B_HR2.gms(203) 8 Mb
--- Reading solution for model chull
--- Executing after solve: elapsed 0:00:00.198
--- z_Logic_B_B_HR2.gms(227) 9 Mb
--- Generating RMIP model chull
--- z_Logic_B_B_HR2.gms(290) 9 Mb
--- LOOPS level2 = 1
---       numm = 1
---   638 rows  297 columns  1,456 non-zeroes
---   60 discrete-columns
--- Executing CPLEX: elapsed 0:00:00.310

IBM ILOG CPLEX   24.4.5 r52258 Released May 26, 2015 VS8 x86 32bit/MS Windows 
--- GAMS/Cplex licensed for continuous and discrete problems.
Cplex 12.6.1.0

Reading data...
Starting Cplex...
Space for names approximately 0.02 Mb
Use option 'names no' to turn use of names off
Tried aggregator 1 time.
LP Presolve eliminated 117 rows and 4 columns.
Aggregator did 58 substitutions.
Reduced LP has 463 rows, 235 columns, and 1384 nonzeros.
Presolve time = 0.00 sec. (0.36 ticks)

Iteration log . . .
Iteration:     1   Dual objective     =             5.000000
Iteration:    62   Dual objective     =             6.000000
Perturbation started.
Iteration:   102   Dual objective     =             6.000000
Removing perturbation.
LP status(1): optimal
Cplex Time: 0.00sec (det. 3.18 ticks)

Optimal solution found.
Objective :           6.000000

--- Restarting execution
--- z_Logic_B_B_HR2.gms(290) 8 Mb
--- Reading solution for model chull
--- Executing after solve: elapsed 0:00:00.432
--- z_Logic_B_B_HR2.gms(227) 9 Mb
--- Generating RMIP model chull
--- z_Logic_B_B_HR2.gms(290) 9 Mb
--- LOOPS level2 = 1
---       numm = 2
---   638 rows  297 columns  1,456 non-zeroes
---   60 discrete-columns
--- Executing CPLEX: elapsed 0:00:00.532

IBM ILOG CPLEX   24.4.5 r52258 Released May 26, 2015 VS8 x86 32bit/MS Windows 
--- GAMS/Cplex licensed for continuous and discrete problems.
Cplex 12.6.1.0

Reading data...
Starting Cplex...
Space for names approximately 0.02 Mb
Use option 'names no' to turn use of names off
Tried aggregator 1 time.
LP Presolve eliminated 117 rows and 4 columns.
Aggregator did 58 substitutions.
Reduced LP has 463 rows, 235 columns, and 1384 nonzeros.
Presolve time = 0.00 sec. (0.36 ticks)

Iteration log . . .
Iteration:     1   Scaled dual infeas =            13.565217
Iteration:    13   Dual objective     =             5.000000
Perturbation started.
Iteration:    64   Dual objective     =             5.000000
Iteration:   136   Dual objective     =             6.000003
Removing perturbation.
LP status(1): optimal
Cplex Time: 0.01sec (det. 2.57 ticks)

Optimal solution found.
Objective :           6.000000

--- Restarting execution
--- z_Logic_B_B_HR2.gms(290) 8 Mb
--- Reading solution for model chull
--- Executing after solve: elapsed 0:00:00.644
--- z_Logic_B_B_HR2.gms(227) 9 Mb
--- Generating RMIP model chull
--- z_Logic_B_B_HR2.gms(290) 9 Mb
--- LOOPS level2 = 1
---       numm = 3
---   640 rows  297 columns  1,460 non-zeroes
---   60 discrete-columns
--- Executing CPLEX: elapsed 0:00:00.742

IBM ILOG CPLEX   24.4.5 r52258 Released May 26, 2015 VS8 x86 32bit/MS Windows 
--- GAMS/Cplex licensed for continuous and discrete problems.
Cplex 12.6.1.0

Reading data...
Starting Cplex...
Space for names approximately 0.02 Mb
Use option 'names no' to turn use of names off
Tried aggregator 1 time.
LP Presolve eliminated 117 rows and 4 columns.
Aggregator did 58 substitutions.
Reduced LP has 465 rows, 235 columns, and 1388 nonzeros.
Presolve time = 0.00 sec. (0.36 ticks)

Iteration log . . .
Iteration:     1   Scaled dual infeas =           179.000000
Iteration:    20   Dual objective     =            -1.666667
Iteration:    93   Dual objective     =             5.000000
Perturbation started.
Iteration:   122   Dual objective     =             5.000000
Removing perturbation.
LP status(1): optimal
Cplex Time: 0.00sec (det. 2.60 ticks)

Optimal solution found.
Objective :           5.000000

--- Restarting execution
--- z_Logic_B_B_HR2.gms(290) 8 Mb
--- Reading solution for model chull
--- Executing after solve: elapsed 0:00:00.868
--- z_Logic_B_B_HR2.gms(227) 9 Mb
--- Generating RMIP model chull
--- z_Logic_B_B_HR2.gms(290) 9 Mb
--- LOOPS level2 = 1
---       numm = 4
---   640 rows  297 columns  1,460 non-zeroes
---   60 discrete-columns
--- Executing CPLEX: elapsed 0:00:00.957

IBM ILOG CPLEX   24.4.5 r52258 Released May 26, 2015 VS8 x86 32bit/MS Windows 
--- GAMS/Cplex licensed for continuous and discrete problems.
Cplex 12.6.1.0

Reading data...
Starting Cplex...
Space for names approximately 0.02 Mb
Use option 'names no' to turn use of names off
Tried aggregator 1 time.
LP Presolve eliminated 117 rows and 4 columns.
Aggregator did 58 substitutions.
Reduced LP has 465 rows, 235 columns, and 1388 nonzeros.
Presolve time = 0.00 sec. (0.36 ticks)

Iteration log . . .
Iteration:     1   Dual objective     =             5.000000
Perturbation started.
Iteration:    51   Dual objective     =             5.000000
Iteration:   114   Dual objective     =             5.000011
Removing perturbation.
LP status(1): optimal
Cplex Time: 0.00sec (det. 3.43 ticks)

Optimal solution found.
Objective :           5.000000

--- Restarting execution
--- z_Logic_B_B_HR2.gms(290) 8 Mb
--- Reading solution for model chull
--- Executing after solve: elapsed 0:00:01.166
--- z_Logic_B_B_HR2.gms(227) 9 Mb
--- Generating RMIP model chull
--- z_Logic_B_B_HR2.gms(290) 9 Mb
--- LOOPS level2 = 2
---       numm = 1
---   595 rows  281 columns  1,360 non-zeroes
---   60 discrete-columns
--- Executing CPLEX: elapsed 0:00:01.400

IBM ILOG CPLEX   24.4.5 r52258 Released May 26, 2015 VS8 x86 32bit/MS Windows 
--- GAMS/Cplex licensed for continuous and discrete problems.
Cplex 12.6.1.0

Reading data...
Starting Cplex...
Space for names approximately 0.02 Mb
Use option 'names no' to turn use of names off
Tried aggregator 1 time.
LP Presolve eliminated 110 rows and 8 columns.
Aggregator did 54 substitutions.
Reduced LP has 431 rows, 219 columns, and 1288 nonzeros.
Presolve time = 0.00 sec. (0.34 ticks)

Iteration log . . .
Iteration:     1   Dual objective     =             5.000000
Iteration:    62   Dual objective     =             6.000000
Perturbation started.
Iteration:   102   Dual objective     =             6.000000
Removing perturbation.
LP status(1): optimal
Cplex Time: 0.00sec (det. 3.05 ticks)

Optimal solution found.
Objective :           6.000000

--- Restarting execution
--- z_Logic_B_B_HR2.gms(290) 8 Mb
--- Reading solution for model chull
--- Executing after solve: elapsed 0:00:01.528
--- z_Logic_B_B_HR2.gms(227) 9 Mb
--- Generating RMIP model chull
--- z_Logic_B_B_HR2.gms(290) 9 Mb
--- LOOPS level2 = 2
---       numm = 2
---   595 rows  281 columns  1,360 non-zeroes
---   60 discrete-columns
--- Executing CPLEX: elapsed 0:00:01.622

IBM ILOG CPLEX   24.4.5 r52258 Released May 26, 2015 VS8 x86 32bit/MS Windows 
--- GAMS/Cplex licensed for continuous and discrete problems.
Cplex 12.6.1.0

Reading data...
Starting Cplex...
Space for names approximately 0.02 Mb
Use option 'names no' to turn use of names off
Tried aggregator 1 time.
LP Presolve eliminated 110 rows and 8 columns.
Aggregator did 54 substitutions.
Reduced LP has 431 rows, 219 columns, and 1288 nonzeros.
Presolve time = 0.00 sec. (0.34 ticks)

Iteration log . . .
Iteration:     1   Scaled dual infeas =             0.000000
Iteration:     2   Dual objective     =             5.000000
Iteration:    66   Dual objective     =             7.000000
Perturbation started.
Iteration:   104   Dual objective     =             7.000000
Removing perturbation.
LP status(1): optimal
Cplex Time: 0.00sec (det. 2.19 ticks)

Optimal solution found.
Objective :           7.000000

--- Restarting execution
--- z_Logic_B_B_HR2.gms(290) 8 Mb
--- Reading solution for model chull
--- Executing after solve: elapsed 0:00:01.756
--- z_Logic_B_B_HR2.gms(227) 9 Mb
--- Generating RMIP model chull
--- z_Logic_B_B_HR2.gms(290) 9 Mb
--- LOOPS level2 = 2
---       numm = 3
---   597 rows  281 columns  1,364 non-zeroes
---   60 discrete-columns
--- Executing CPLEX: elapsed 0:00:01.848

IBM ILOG CPLEX   24.4.5 r52258 Released May 26, 2015 VS8 x86 32bit/MS Windows 
--- GAMS/Cplex licensed for continuous and discrete problems.
Cplex 12.6.1.0

Reading data...
Starting Cplex...
Space for names approximately 0.02 Mb
Use option 'names no' to turn use of names off
Tried aggregator 1 time.
LP Presolve eliminated 110 rows and 8 columns.
Aggregator did 54 substitutions.
Reduced LP has 433 rows, 219 columns, and 1292 nonzeros.
Presolve time = 0.00 sec. (0.34 ticks)

Iteration log . . .
Iteration:     1   Scaled dual infeas =            89.416667
Iteration:    38   Dual objective     =           -18.416667
Iteration:   109   Dual objective     =             6.000000
Perturbation started.
Iteration:   140   Dual objective     =             6.000000
Removing perturbation.
LP status(1): optimal
Cplex Time: 0.00sec (det. 2.26 ticks)

Optimal solution found.
Objective :           6.000000

--- Restarting execution
--- z_Logic_B_B_HR2.gms(290) 8 Mb
--- Reading solution for model chull
--- Executing after solve: elapsed 0:00:01.981
--- z_Logic_B_B_HR2.gms(227) 9 Mb
--- Generating RMIP model chull
--- z_Logic_B_B_HR2.gms(290) 9 Mb
--- LOOPS level2 = 2
---       numm = 4
---   597 rows  281 columns  1,364 non-zeroes
---   60 discrete-columns
--- Executing CPLEX: elapsed 0:00:02.077

IBM ILOG CPLEX   24.4.5 r52258 Released May 26, 2015 VS8 x86 32bit/MS Windows 
--- GAMS/Cplex licensed for continuous and discrete problems.
Cplex 12.6.1.0

Reading data...
Starting Cplex...
Space for names approximately 0.02 Mb
Use option 'names no' to turn use of names off
Tried aggregator 1 time.
LP Presolve eliminated 110 rows and 8 columns.
Aggregator did 54 substitutions.
Reduced LP has 433 rows, 219 columns, and 1292 nonzeros.
Presolve time = 0.00 sec. (0.34 ticks)

Iteration log . . .
Iteration:     1   Dual objective     =             3.000000
Iteration:    63   Dual objective     =             6.000000
LP status(1): optimal
Cplex Time: 0.02sec (det. 2.72 ticks)

Optimal solution found.
Objective :           6.000000

--- Restarting execution
--- z_Logic_B_B_HR2.gms(290) 8 Mb
--- Reading solution for model chull
--- Executing after solve: elapsed 0:00:02.188
--- z_Logic_B_B_HR2.gms(227) 9 Mb
--- Generating RMIP model chull
--- z_Logic_B_B_HR2.gms(290) 9 Mb
--- LOOPS level2 = 2
---       numm = 5
---   595 rows  281 columns  1,360 non-zeroes
---   60 discrete-columns
--- Executing CPLEX: elapsed 0:00:02.281

IBM ILOG CPLEX   24.4.5 r52258 Released May 26, 2015 VS8 x86 32bit/MS Windows 
--- GAMS/Cplex licensed for continuous and discrete problems.
Cplex 12.6.1.0

Reading data...
Starting Cplex...
Space for names approximately 0.02 Mb
Use option 'names no' to turn use of names off
Tried aggregator 1 time.
LP Presolve eliminated 110 rows and 8 columns.
Aggregator did 54 substitutions.
Reduced LP has 431 rows, 219 columns, and 1288 nonzeros.
Presolve time = 0.00 sec. (0.34 ticks)

Iteration log . . .
Iteration:     1   Dual objective     =             1.000000
Iteration:    68   Dual objective     =             7.000000
Perturbation started.
Iteration:   102   Dual objective     =             7.000000
Removing perturbation.
LP status(1): optimal
Cplex Time: 0.02sec (det. 2.27 ticks)

Optimal solution found.
Objective :           7.000000

--- Restarting execution
--- z_Logic_B_B_HR2.gms(290) 8 Mb
--- Reading solution for model chull
--- Executing after solve: elapsed 0:00:02.392
--- z_Logic_B_B_HR2.gms(227) 9 Mb
--- Generating RMIP model chull
--- z_Logic_B_B_HR2.gms(290) 9 Mb
--- LOOPS level2 = 2
---       numm = 6
---   595 rows  281 columns  1,360 non-zeroes
---   60 discrete-columns
--- Executing CPLEX: elapsed 0:00:02.510

IBM ILOG CPLEX   24.4.5 r52258 Released May 26, 2015 VS8 x86 32bit/MS Windows 
--- GAMS/Cplex licensed for continuous and discrete problems.
Cplex 12.6.1.0

Reading data...
Starting Cplex...
Space for names approximately 0.02 Mb
Use option 'names no' to turn use of names off
Tried aggregator 1 time.
LP Presolve eliminated 110 rows and 8 columns.
Aggregator did 54 substitutions.
Reduced LP has 431 rows, 219 columns, and 1288 nonzeros.
Presolve time = 0.00 sec. (0.34 ticks)

Iteration log . . .
Iteration:     1   Scaled dual infeas =             1.000000
Iteration:     3   Dual objective     =             5.000000
Iteration:    68   Dual objective     =             6.000000
Perturbation started.
Iteration:   105   Dual objective     =             6.000000
Removing perturbation.
LP status(1): optimal
Cplex Time: 0.00sec (det. 2.61 ticks)

Optimal solution found.
Objective :           6.000000

--- Restarting execution
--- z_Logic_B_B_HR2.gms(290) 8 Mb
--- Reading solution for model chull
--- Executing after solve: elapsed 0:00:02.645
--- z_Logic_B_B_HR2.gms(227) 9 Mb
--- Generating RMIP model chull
--- z_Logic_B_B_HR2.gms(290) 9 Mb
--- LOOPS level2 = 2
---       numm = 7
---   597 rows  281 columns  1,364 non-zeroes
---   60 discrete-columns
--- Executing CPLEX: elapsed 0:00:02.735

IBM ILOG CPLEX   24.4.5 r52258 Released May 26, 2015 VS8 x86 32bit/MS Windows 
--- GAMS/Cplex licensed for continuous and discrete problems.
Cplex 12.6.1.0

Reading data...
Starting Cplex...
Space for names approximately 0.02 Mb
Use option 'names no' to turn use of names off
Tried aggregator 1 time.
LP Presolve eliminated 110 rows and 8 columns.
Aggregator did 54 substitutions.
Reduced LP has 433 rows, 219 columns, and 1292 nonzeros.
Presolve time = 0.02 sec. (0.34 ticks)

Iteration log . . .
Iteration:     1   Dual objective     =             6.000000
Perturbation started.
Iteration:    51   Dual objective     =             6.000000
Iteration:   117   Dual objective     =             6.000005
Removing perturbation.
LP status(1): optimal
Cplex Time: 0.02sec (det. 3.05 ticks)

Optimal solution found.
Objective :           6.000000

--- Restarting execution
--- z_Logic_B_B_HR2.gms(290) 8 Mb
--- Reading solution for model chull
--- Executing after solve: elapsed 0:00:02.847
--- z_Logic_B_B_HR2.gms(227) 9 Mb
--- Generating RMIP model chull
--- z_Logic_B_B_HR2.gms(290) 9 Mb
--- LOOPS level2 = 2
---       numm = 8
---   597 rows  281 columns  1,364 non-zeroes
---   60 discrete-columns
--- Executing CPLEX: elapsed 0:00:02.960

IBM ILOG CPLEX   24.4.5 r52258 Released May 26, 2015 VS8 x86 32bit/MS Windows 
--- GAMS/Cplex licensed for continuous and discrete problems.
Cplex 12.6.1.0

Reading data...
Starting Cplex...
Space for names approximately 0.02 Mb
Use option 'names no' to turn use of names off
Tried aggregator 1 time.
LP Presolve eliminated 110 rows and 8 columns.
Aggregator did 54 substitutions.
Reduced LP has 433 rows, 219 columns, and 1292 nonzeros.
Presolve time = 0.00 sec. (0.34 ticks)

Iteration log . . .
Iteration:     1   Dual objective     =             6.000000
Perturbation started.
Iteration:    51   Dual objective     =             6.000000
Iteration:   119   Dual objective     =             6.000008
Removing perturbation.
LP status(1): optimal
Cplex Time: 0.00sec (det. 2.83 ticks)

Optimal solution found.
Objective :           6.000000

--- Restarting execution
--- z_Logic_B_B_HR2.gms(290) 8 Mb
--- Reading solution for model chull
--- Executing after solve: elapsed 0:00:03.087
--- z_Logic_B_B_HR2.gms(227) 9 Mb
--- Generating RMIP model chull
--- z_Logic_B_B_HR2.gms(290) 9 Mb
--- LOOPS level2 = 2
---       numm = 9
---   597 rows  281 columns  1,364 non-zeroes
---   60 discrete-columns
--- Executing CPLEX: elapsed 0:00:03.176

IBM ILOG CPLEX   24.4.5 r52258 Released May 26, 2015 VS8 x86 32bit/MS Windows 
--- GAMS/Cplex licensed for continuous and discrete problems.
Cplex 12.6.1.0

Reading data...
Starting Cplex...
Space for names approximately 0.02 Mb
Use option 'names no' to turn use of names off
Tried aggregator 1 time.
LP Presolve eliminated 110 rows and 8 columns.
Aggregator did 54 substitutions.
Reduced LP has 433 rows, 219 columns, and 1292 nonzeros.
Presolve time = 0.00 sec. (0.34 ticks)

Iteration log . . .
Iteration:     1   Scaled dual infeas =             1.875000
Iteration:     5   Dual objective     =             4.250000
Iteration:    75   Dual objective     =             6.000000
LP status(1): optimal
Cplex Time: 0.00sec (det. 2.07 ticks)

Optimal solution found.
Objective :           6.000000

--- Restarting execution
--- z_Logic_B_B_HR2.gms(290) 8 Mb
--- Reading solution for model chull
Sending CtrlC signal
--- Executing after solve: elapsed 0:00:03.288
--- z_Logic_B_B_HR2.gms(227) 9 Mb
*** Error at line 323: Execution halted: Triggered by pending CtrlC event
--- z_Logic_B_B_HR2.gms(227) 9 Mb 1 Error
*** Status: Execution error(s)
--- Job z_Logic_B_B_HR2.gms Stop 06/30/15 12:11:59 elapsed 0:00:03.355
Exit code = 3
